
Log started (V12.10.0.0) Sun Apr  4 09:23:08 2021


Problem 'asset.lp' read.
Read time = 0.00 sec. (0.16 ticks)
New value for default parallel thread count: 1
New value for time limit in seconds: 300
Version identifier: 12.10.0.0 | 2019-11-26 | 843d4de
CPXPARAM_Threads                                 1
CPXPARAM_TimeLimit                               300
Found incumbent of value -0.903587 after 0.00 sec. (0.07 ticks)
Tried aggregator 3 times.
MIP Presolve eliminated 400 rows and 202 columns.
MIP Presolve modified 1294 coefficients.
Aggregator did 500 substitutions.
Reduced MIP has 598 rows, 692 columns, and 2871 nonzeros.
Reduced MIP has 596 binaries, 63 generals, 0 SOSs, and 0 indicators.
Presolve time = 0.01 sec. (5.63 ticks)
Probing fixed 20 vars, tightened 9 bounds.
Probing time = 0.01 sec. (3.99 ticks)
Cover probing fixed 0 vars, tightened 2 bounds.
Tried aggregator 1 time.
Detecting symmetries...
MIP Presolve eliminated 38 rows and 38 columns.
MIP Presolve modified 352 coefficients.
Reduced MIP has 560 rows, 654 columns, and 2681 nonzeros.
Reduced MIP has 567 binaries, 54 generals, 0 SOSs, and 0 indicators.
Presolve time = 0.00 sec. (1.92 ticks)
Probing time = 0.00 sec. (2.64 ticks)
Clique table members: 1751.
MIP emphasis: balance optimality and feasibility.
MIP search method: dynamic search.
Parallel mode: none, using 1 thread.
Root relaxation solution time = 0.01 sec. (4.94 ticks)

        Nodes                                         Cuts/
   Node  Left     Objective  IInf  Best Integer    Best Bound    ItCnt     Gap

*     0+    0                           -0.9036      429.8661              --- 
      0     0      262.3026   145       -0.9036      262.3026      413     --- 
      0     0      259.2264   145       -0.9036     Cuts: 214      634     --- 
      0     0      257.5883   145       -0.9036     Cuts: 240      812     --- 
      0     0      257.5875   145       -0.9036     Cuts: 204      929     --- 
      0     0      257.5865   145       -0.9036     Cuts: 170     1066     --- 
      0     0      257.5851   145       -0.9036     Cuts: 149     1167     --- 
Detecting symmetries...
*     0+    0                          248.8694      257.5851             3.50%
Detecting symmetries...
      0     2      257.5851   153      248.8694      257.5850     1167    3.50%
Elapsed time = 0.15 sec. (160.02 ticks, tree = 0.01 MB, solutions = 1)
*   120+   92                          248.8702      257.5848             3.50%
    255   212      250.4936   105      248.8702      257.5841     6630    3.50%

Performing restart 1

Repeating presolve.
Tried aggregator 2 times.
MIP Presolve eliminated 52 rows and 64 columns.
MIP Presolve modified 389 coefficients.
Aggregator did 10 substitutions.
Reduced MIP has 498 rows, 576 columns, and 2000 nonzeros.
Reduced MIP has 497 binaries, 47 generals, 0 SOSs, and 0 indicators.
Presolve time = 0.00 sec. (3.03 ticks)
Tried aggregator 1 time.
MIP Presolve eliminated 6 rows and 1 columns.
MIP Presolve modified 42 coefficients.
Reduced MIP has 492 rows, 575 columns, and 1985 nonzeros.
Reduced MIP has 496 binaries, 47 generals, 0 SOSs, and 0 indicators.
Presolve time = 0.00 sec. (1.54 ticks)
Represolve time = 0.01 sec. (9.63 ticks)
    498     0      257.5434   108      248.8702     Cuts: 110    12441    3.49%
    498     0      256.4866   108      248.8702     Cuts: 117    12867    3.06%
    498     0      255.2977   108      248.8702      Cuts: 94    13000    2.58%
    498     0      254.1479   108      248.8702      Cuts: 83    13198    2.12%
    498     0      254.0293   108      248.8702      Cuts: 75    13402    2.07%
    498     0      253.9692   108      248.8702      Cuts: 94    13545    2.05%
    498     0      253.6599   108      248.8702      Cuts: 77    13696    1.92%
    498     0      253.5300   108      248.8702     Cuts: 103    13869    1.87%
    498     0      253.5109   108      248.8702      Cuts: 71    14032    1.86%
*   498+    0                          248.8709      253.5109             1.86%
    498     0        cutoff            248.8709      253.5109    14032    1.86%
    498     0      253.4637   108      248.8709      Cuts: 90    14195    1.85%
    498     0      253.3520   108      248.8709      Cuts: 48    14336    1.80%
    498     0      253.2722   108      248.8709      Cuts: 86    14413    1.77%
    498     0      253.2298   108      248.8709      Cuts: 37    14496    1.75%
    498     0      252.9856   108      248.8709      Cuts: 42    14756    1.65%
    498     0      252.9825   108      248.8709      Cuts: 38    14807    1.65%
    498     0      252.9803   108      248.8709      Cuts: 31    14830    1.65%
    498     0      252.9795   108      248.8709      Cuts: 28    14863    1.65%
    498     0      252.9782   108      248.8709      Cuts: 41    14900    1.65%
*   498+    0                          249.3109      252.9782             1.47%
*   498+    0                          249.3111      252.9782             1.47%
*   498+    0                          249.3117      252.9782             1.47%
    498     0        cutoff            249.3117      252.9782    14900    1.47%
    498     2      252.9782   128      249.3117      252.9780    14900    1.47%
    508     6      249.3219   102      249.3117      252.2317    15380    1.17%

GUB cover cuts applied:  7
Clique cuts applied:  7
Cover cuts applied:  3
Implied bound cuts applied:  8
Flow cuts applied:  8
Mixed integer rounding cuts applied:  21
Zero-half cuts applied:  17
Lift and project cuts applied:  7
Gomory fractional cuts applied:  9

Root node processing (before b&c):
  Real time             =    0.15 sec. (160.10 ticks)
Sequential b&c:
  Real time             =    1.76 sec. (1973.37 ticks)
                          ------------
Total (root+branch&cut) =    1.91 sec. (2133.48 ticks)

Solution pool: 7 solutions saved.

MIP - Integer optimal, tolerance (0.0001/1e-06):  Objective =  2.4931166968e+02
Current MIP best bound =  2.4932493217e+02 (gap = 0.0132625, 0.01%)
Solution time =    1.91 sec.  Iterations = 16253  Nodes = 560 (36)
Deterministic time = 2133.48 ticks  (1116.66 ticks/sec)


Incumbent solution
Variable Name           Solution Value
F                           295.000000
f1                            0.948330
f2                           44.740000
y10                           1.000000
y29                           1.000000
y50                           1.000000
y67                           1.000000
y71                           1.000000
y103                          1.000000
y153                          1.000000
y202                          1.000000
y246                          1.000000
y256                          1.000000
y69                           1.000000
y245                          1.000000
y191                          1.000000
y147                          1.000000
y156                          1.000000
y66                           1.000000
y248                          1.000000
y13                           1.000000
y8                            1.000000
y14                           1.000000
y180                          1.000000
y243                          1.000000
s10                           6.871664
s18                           6.000000
s19                           6.000000
s21                           6.000000
s23                           6.000000
s29                           6.130745
s32                           6.000000
s40                           6.000000
s50                           6.771400
s58                           6.000000
s67                           6.683079
s71                           6.265769
s73                           6.000000
s82                           6.000000
s92                           6.000000
s103                          6.815707
s104                          6.000000
s117                          6.000000
s121                          6.000000
s127                          6.000000
s133                          6.000000
s136                          6.000000
s140                          6.000000
s153                          6.929619
s158                          6.000000
s171                          6.000000
s201                          6.000000
s202                          6.914802
s220                          6.000000
s238                          6.000000
s246                          6.698357
s256                          6.112119
s69                           6.972278
s245                          7.172992
s191                          6.913691
s147                          7.145806
s156                          7.462876
s66                           7.595078
s248                          7.937728
s13                           6.995046
s8                            8.208699
s14                           8.180218
s180                          8.032364
s243                          8.226940
x135x147x1                    1.000000
x163x66x1                     1.000000
x91x29x1                      1.000000
x235x153x1                    2.000000
x229x191x1                    2.000000
x233x50x1                     1.000000
x233x103x1                    1.000000
x109x69x1                     2.000000
x91x29x2                      1.000000
x207x29x2                     0.000000
x207x256x2                    1.000000
x152x246x2                    1.000000
x146x10x2                     1.000000
x146x29x2                    -0.000000
x146x246x2                    1.000000
x30x10x2                     -0.000000
x30x29x2                      0.000000
x30x13x2                      1.000000
x110x156x2                    1.000000
x198x71x2                     2.000000
x137x245x2                    1.000000
x135x147x3                    1.000000
x163x245x3                    1.000000
x255x256x3                    1.000000
x114x67x3                     2.000000
x152x50x3                     1.000000
x30x202x3                     1.000000
x110x10x3                     1.000000
x122x103x3                    1.000000
x122x202x3                    1.000000
x137x13x3                     1.000000
x10x0x2                       1.000000
x10x0x3                       1.000000
x10x243x3                     0.000000
x29x156x1                     1.000000
x29x0x2                       1.000000
x50x248x1                     1.000000
x50x0x3                       1.000000
x67x0x3                       1.000000
x67x180x3                     1.000000
x71x66x2                      1.000000
x71x14x2                      1.000000
x103x0x1                      1.000000
x103x0x3                      1.000000
x103x180x3                    0.000000
x103x243x3                   -0.000000
x153x14x1                     1.000000
x153x243x1                    1.000000
x202x0x3                      1.000000
x202x243x3                    1.000000
x246x0x2                      2.000000
x256x0x2                      1.000000
x256x180x3                    1.000000
x69x0x1                       2.000000
x245x0x2                      1.000000
x245x0x3                      1.000000
x191x248x1                    1.000000
x191x8x1                      1.000000
x147x8x1                      1.000000
x147x0x3                      1.000000
x156x0x1                      1.000000
x156x0x2                      1.000000
x66x0x1                       1.000000
x66x0x2                       1.000000
x248x0x1                      2.000000
x13x0x2                       1.000000
x13x0x3                       1.000000
x8x0x1                        2.000000
x14x0x1                       1.000000
x14x0x2                       1.000000
x180x0x3                      2.000000
x243x0x1                      1.000000
x243x0x3                      1.000000
s135                          5.879570
z135z147z1                    1.000000
z135z147z3                    1.000000
z135z8z1                      1.000000
s163                          5.963109
z163z245z3                    1.000000
z163z66z1                     1.000000
z163z8z1                      1.000000
s255                          4.358290
z255z67z3                     1.000000
z255z202z3                    1.000000
z255z256z3                    1.000000
z255z180z3                    1.000000
s91                           4.524910
z91z29z1                      1.000000
z91z29z2                      1.000000
z91z191z1                     1.000000
z91z248z1                     1.000000
z91z8z1                       1.000000
s207                          4.571080
z207z29z2                     0.000000
z207z256z2                    1.000000
s114                          4.936410
z114z67z3                     1.000000
z114z180z3                    1.000000
s235                          5.052990
z235z153z1                    1.000000
z235z69z1                     1.000000
z235z248z1                    1.000000
z235z8z1                      1.000000
s152                          4.925950
z152z50z3                     1.000000
z152z246z2                    1.000000
z152z180z3                    1.000000
s229                          5.087170
z229z191z1                    1.000000
z229z248z1                    1.000000
z229z8z1                      1.000000
s146                          4.935020
z146z10z2                     1.000000
z146z29z2                    -0.000000
z146z246z2                    1.000000
s30                           4.986550
z30z10z2                     -0.000000
z30z29z2                      0.000000
z30z202z3                     1.000000
z30z13z2                      1.000000
z30z180z3                     1.000000
s110                          5.137050
z110z10z3                     1.000000
z110z156z2                    1.000000
z110z180z3                    1.000000
s233                          5.107300
z233z50z1                     1.000000
z233z103z1                    1.000000
z233z248z1                    1.000000
z233z8z1                      1.000000
s122                          5.112790
z122z103z3                    1.000000
z122z202z3                    1.000000
z122z180z3                    1.000000
s198                          4.943860
z198z71z2                     1.000000
s137                          5.171170
z137z245z2                    1.000000
z137z13z3                     1.000000
s109                          5.225240
z109z69z1                     1.000000
z109z191z1                    1.000000
z109z248z1                    1.000000
z109z8z1                      1.000000
z10z243z3                     0.000000
z29z156z1                     1.000000
z50z248z1                     1.000000
z67z180z3                     1.000000
z71z66z2                      1.000000
z71z14z2                      1.000000
z103z180z3                    0.000000
z103z243z3                   -0.000000
z153z14z1                     1.000000
z153z243z1                    1.000000
z158z8z1                      1.000000
z202z243z3                    1.000000
z256z180z3                    1.000000
z191z248z1                    1.000000
z191z8z1                      1.000000
z147z8z1                      1.000000
All other variables in the range 1-1395 are 0.
